multiobj/instances/uniform/Ter.8.2.1.00.3.in
8 2
0 910 804 8 349 683 316 804 
910 0 397 493 958 590 868 986 
804 397 0 420 748 566 252 249 
8 493 420 0 892 694 165 297 
349 958 748 892 0 517 341 540 
683 590 566 694 517 0 207 543 
316 868 252 165 341 207 0 575 
804 986 249 297 540 543 575 0 
0 173 524 871 526 86 230 876 
173 0 735 828 699 221 179 715 
524 735 0 60 126 268 56 156 
871 828 60 0 814 492 810 765 
526 699 126 814 0 912 700 229 
86 221 268 492 912 0 224 954 
230 179 56 810 700 224 0 502 
876 715 156 765 229 954 502 0 
0 173 524 871 526 86 230 876 
173 0 735 828 699 221 179 715 
524 735 0 60 126 268 56 156 
871 828 60 0 814 492 810 765 
526 699 126 814 0 912 700 229 
86 221 268 492 912 0 224 954 
230 179 56 810 700 224 0 502 
876 715 156 765 229 954 502 0 
