multiobj/solutions/Ter.8.2.1.00.3.out
1 2
5 2 1 6 0 3 4 7 
11637688 11637688 
